c turning on binary mode checking
c parsing input formula with 259840 variables and 1039924 clauses
c finished parsing, read 2726301 bytes from proof file
c detected empty clause; start verification via backward checking
c 2856 of 1039924 clauses in core                            
c 920 of 108801 lemmas in core using 31618 resolution steps
c 0 RAT lemmas in core; 178 redundant literals in core lemmas
s VERIFIED
c verification time: 1.177 seconds
